opti conp prop
title
generated by pyflamestk
end
vectors
5.0000 0.0000 0.0000
0.0000 5.0000 0.0000
0.0000 0.0000 5.0000
frac
Mg core 0.5 0.5 0.0
Mg core 0.5 0.0 0.5
Mg core 0.0 0.0 0.0
Mg core 0.0 0.5 0.5
O core 0.0 0.5 0.0
O core 0.5 0.0 0.0
O core 0.5 0.5 0.5
O core 0.0 0.0 0.5
species 2
Mg core 2.0
O core -2.0
buck
Mg core Mg core 0.0 0.5 0.0 0 10 
Mg core O core 821.6 0.3242 0.0 0 10 
O core O core 22764.0 0.149 27.88 0 10 
